1 96 6 13 37 59 89 92 93 94 95 97 98 99
2 33 3 9 34 50 51 76 77 78 79 81
3 74 21 22 41 56 72 73 75
4 63 11 32 64 90
5 82 7 8 18 48
6 57 2 15 42 43 87
7 80 12 24 29 54 68
8 84 5 17 45 60 83
9 31 1 10 30 52 62 69 70 88
10 53 26 27 28 40 58 101
11 71 20 35 65 66
12 44 14 16 38 61 85 86 91 100
13 25 4 39 55
14 23 67
15 47 19 36 46 49
